50 10031

337
203
327
493
192
26
197
224
315
264
229
109
194
401
105
455
72
330
202
73
281
405
91
331
255
223
384
64
105
190
412
167
242
28
419
337
378
96
419
304
370
391
86
315
177
73
467
108
477
196
